p cnf 89 283
-2 3 -4 0
2 -3 -4 0
-2 -3 4 0
2 3 4 0
-5 -1 0
-5 4 0
1 -4 5 0
-8 -6 0
-8 7 0
6 -7 8 0
-5 -8 -9 0
5 8 -9 0
-5 8 9 0
5 -8 9 0
-12 -10 0
-12 11 0
10 -11 12 0
1 -14 -15 0
-1 14 -15 0
1 14 15 0
-1 -14 15 0
-13 -15 -16 0
13 15 -16 0
-13 15 16 0
13 -15 16 0
-1 6 -17 0
1 -6 -17 0
-1 -6 17 0
1 6 17 0
-18 16 0
-18 -17 0
-16 17 18 0
19 -1 0
19 18 0
1 -18 -19 0
-7 20 -21 0
7 -20 -21 0
-7 -20 21 0
7 20 21 0
-22 -19 0
-22 21 0
19 -21 22 0
-12 -22 -23 0
12 22 -23 0
-12 22 23 0
12 -22 23 0
24 7 -25 0
-24 -7 -25 0
24 -7 25 0
-24 7 25 0
-11 -25 -26 0
11 25 -26 0
-11 25 26 0
11 -25 26 0
-23 26 -27 0
23 -26 -27 0
-23 -26 27 0
23 26 27 0
-28 -9 0
-28 -27 0
9 27 28 0
-30 -12 0
-30 29 0
12 -29 30 0
-31 2 0
-31 -15 0
-2 15 31 0
3 31 -32 0
-3 -31 -32 0
3 -31 32 0
-3 31 32 0
33 25 0
33 -32 0
-25 32 -33 0
-34 -21 0
-34 -32 0
21 32 34 0
35 -33 0
35 34 0
33 -34 -35 0
-36 30 0
-36 -35 0
-30 35 36 0
-38 -37 0
-38 4 0
37 -4 38 0
39 -8 0
39 1 0
8 -1 -39 0
40 -2 0
40 2 0
-25 -40 -41 0
25 40 -41 0
-25 40 41 0
25 -40 41 0
39 41 -42 0
-39 -41 -42 0
39 -41 42 0
-39 41 42 0
43 41 -44 0
-43 -41 -44 0
43 -41 44 0
-43 41 44 0
-45 -42 0
-45 44 0
42 -44 45 0
46 -38 0
46 -45 0
38 45 -46 0
-47 36 0
-47 46 0
-36 -46 47 0
-48 10 0
-48 -34 0
-10 34 48 0
-48 20 -49 0
48 -20 -49 0
-48 -20 49 0
48 20 49 0
50 -13 -51 0
-50 13 -51 0
50 13 51 0
-50 -13 51 0
-51 6 -52 0
51 -6 -52 0
-51 -6 52 0
51 6 52 0
25 -24 -53 0
-25 24 -53 0
25 24 53 0
-25 -24 53 0
-54 52 0
-54 53 0
-52 -53 54 0
-49 -54 -55 0
49 54 -55 0
-49 54 55 0
49 -54 55 0
-1 -5 -56 0
1 5 -56 0
-1 5 56 0
1 -5 56 0
-29 -2 -57 0
29 2 -57 0
-29 2 57 0
29 -2 57 0
-58 -5 0
-58 -57 0
5 57 58 0
-59 7 0
-59 -41 0
-7 41 59 0
-60 59 0
-60 -13 0
-59 13 60 0
-61 -58 0
-61 60 0
58 -60 61 0
-62 56 0
-62 61 0
-56 -61 62 0
-63 12 0
-63 6 0
-12 -6 63 0
-64 63 0
-64 39 0
-63 -39 64 0
-62 64 -65 0
62 -64 -65 0
-62 -64 65 0
62 64 65 0
66 1 0
66 57 0
-1 -57 -66 0
67 -68 0
-67 -68 0
66 68 -69 0
-66 -68 -69 0
66 -68 69 0
-66 68 69 0
70 65 0
70 -69 0
-65 69 -70 0
-71 -55 0
-71 70 0
55 -70 71 0
47 -71 -72 0
-47 71 -72 0
47 71 72 0
-47 -71 72 0
73 -43 0
73 3 0
43 -3 -73 0
74 -29 0
74 4 0
29 -4 -74 0
-74 -75 0
74 -75 0
-76 -14 0
-76 4 0
14 -4 76 0
77 75 0
77 76 0
-75 -76 -77 0
73 -77 -78 0
-73 77 -78 0
73 77 78 0
-73 -77 78 0
-25 2 -79 0
25 -2 -79 0
-25 -2 79 0
25 2 79 0
-80 13 0
-80 -79 0
-13 79 80 0
52 51 -81 0
-52 -51 -81 0
52 -51 81 0
-52 51 81 0
-81 -3 -82 0
81 3 -82 0
-81 3 82 0
81 -3 82 0
-83 6 0
-83 -10 0
-6 10 83 0
-20 -83 -84 0
20 83 -84 0
-20 83 84 0
20 -83 84 0
85 82 0
85 -84 0
-82 84 -85 0
-86 80 0
-86 85 0
-80 -85 86 0
87 78 0
87 86 0
-78 -86 -87 0
-88 72 0
-88 -87 0
-72 87 88 0
89 28 0
89 -88 0
-28 88 -89 0
-42 -40 -71 -44 28 -50 0
-16 1 -41 -68 0
-29 28 0
9 66 89 0
-40 -77 2 0
60 83 47 -68 0
61 78 54 23 -5 0
-68 49 19 18 41 0
-42 -37 49 50 68 0
66 85 -82 -71 0
-9 32 -47 -3 46 0
79 9 88 -56 68 -32 0
-85 -89 -77 -47 4 0
72 48 -67 25 -8 0
-38 89 -7 -76 0
27 64 -60 77 -86 -71 0
21 51 28 -14 63 -47 0
-58 -74 28 72 0
-46 -2 67 29 22 18 0
37 -77 23 84 0
19 -72 64 -27 0
-34 7 84 57 -13 -59 0
24 56 60 0
-54 -14 -17 26 28 -58 0
-54 53 -9 0
-89 -50 -25 0
-81 -58 -89 -83 0
35 -36 -60 56 0
-39 72 33 0
72 16 58 -84 -61 -62 0
-11 17 7 33 0
-60 45 75 -24 0
-71 -21 -8 0
6 70 64 -56 -78 42 0
16 48 -50 -24 0
26 -4 -45 -27 8 -76 0
63 -30 0
89 0
